Gurobi Optimizer version 9.0.1 build v9.0.1rc0 (linux64)
Optimize a model with 32768 rows, 16587 columns and 1712128 nonzeros
Model fingerprint: 0x8169410c
Coefficient statistics:
  Matrix range     [1e+00, 8e+04]
  Objective range  [1e-02, 1e+00]
  Bounds range     [1e+02, 1e+03]
  RHS range        [5e+06, 6e+06]
Presolve removed 8192 rows and 98 columns
Presolve time: 0.82s
Presolved: 24576 rows, 16489 columns, 901120 nonzeros
Ordering time: 0.01s

Barrier statistics:
 Dense cols : 105
 Free vars  : 8192
 AA' NZ     : 8.847e+05
 Factor NZ  : 2.635e+06 (roughly 40 MBytes of memory)
 Factor Ops : 2.818e+08 (less than 1 second per iteration)
 Threads    : 1

                  Objective                Residual
Iter       Primal          Dual         Primal    Dual     Compl     Time
   0   1.35243337e+11 -4.58356129e+06  9.17e+08 5.35e-06  1.21e+07     1s
   1   4.64598370e+10 -3.70045644e+06  1.77e+07 6.27e-02  1.88e+06     1s
   2   8.87693009e+09 -2.83499023e+06  3.24e+06 2.80e-02  3.59e+05     1s
   3   4.08113273e+08 -1.06880000e+06  1.47e+05 1.26e-03  1.65e+04     2s
   4   4.12820669e+05 -2.05797559e+04  9.31e-09 1.19e-04  1.75e+01     2s
   5   2.19504181e+03 -3.67238536e+03  8.38e-09 1.33e-03  1.96e-01     2s
   6   6.99743121e+02 -2.23021483e+03  7.45e-09 1.18e-02  1.62e-02     2s
   7   3.89035663e+02  1.15277856e+03  1.02e-08 2.22e-03  1.16e-03     2s
   8   3.61279825e+02  6.82570088e+02  6.52e-09 1.44e-03  2.80e-05     3s
   9   3.61105739e+02 -5.98776598e+02  5.59e-09 1.04e-03  9.10e-07     3s
  10   3.61092964e+02 -1.48813466e+03  7.45e-09 7.70e-04  3.81e-07     3s
  11   3.61090934e+02 -1.55440413e+03  4.66e-09 1.00e-03  2.82e-07     3s
  12   3.61089414e+02 -1.42076765e+03  7.45e-09 7.97e-04  2.16e-07     3s
  13   3.61088280e+02 -1.59599183e+03  4.66e-09 1.44e-03  1.60e-07     4s
  14   3.61088105e+02 -1.36669593e+03  4.66e-09 1.34e-03  1.43e-07     4s
  15   3.61087406e+02 -1.68011524e+03  5.59e-09 1.36e-03  1.16e-07     4s
  16   3.61087301e+02 -1.77390955e+03  6.52e-09 1.36e-03  1.02e-07     4s
  17   3.61087204e+02  6.59504333e+01  7.45e-09 1.39e-03  9.89e-08     4s
  18   3.61087204e+02  6.59616637e+01  6.52e-09 1.39e-03  9.89e-08     5s
  19   3.61087241e+02  1.56536188e+01  5.12e-08 1.30e-03  9.97e-08     5s
  20   3.61087045e+02 -2.24182964e+02  2.26e-08 1.20e-03  8.25e-08     5s
  21   3.61086874e+02 -3.46790446e+02  2.15e-08 1.19e-03  7.96e-08     5s
  22   3.61086834e+02 -3.28513953e+02  5.59e-09 1.15e-03  7.37e-08     6s
  23   3.61086729e+02 -1.38463289e+02  5.59e-09 9.24e-04  6.46e-08     6s
  24   3.61086497e+02 -2.43355494e+02  5.59e-09 8.19e-04  5.38e-08     6s
  25   3.61086455e+02 -2.41598413e+02  4.66e-09 7.92e-04  5.13e-08     6s
  26   3.61086459e+02 -2.69565942e+02  6.52e-09 7.78e-04  5.08e-08     6s
  27   3.61086476e+02 -2.61126916e+02  5.59e-09 7.72e-04  5.09e-08     7s
  28   3.61086481e+02 -5.13422145e+02  5.59e-09 6.39e-04  4.87e-08     7s
  29   3.61086441e+02  6.31335606e+02  5.59e-09 1.01e-03  4.84e-08     7s
  30   3.61086439e+02  6.31335118e+02  2.14e-07 1.01e-03  4.84e-08     7s
  31   3.61086440e+02  6.31333955e+02  2.14e-07 1.01e-03  4.84e-08     8s
  32   3.61086598e+02  2.88729104e+02  1.22e-07 7.81e-04  5.22e-08     8s
  33   3.61086597e+02  2.88691558e+02  1.22e-07 7.81e-04  5.22e-08     9s
  34   3.61086647e+02  2.29096162e+02  8.85e-08 7.14e-04  4.96e-08     9s
  35   3.61086647e+02  2.29062530e+02  8.85e-08 7.14e-04  4.96e-08     9s
  36   3.61086645e+02 -2.20404814e+02  7.11e-08 6.37e-04  4.83e-08     9s
  37   3.61086607e+02 -2.87535429e+02  7.30e-08 5.70e-04  4.65e-08    10s
  38   3.61086499e+02 -2.56646817e+02  5.86e-08 5.44e-04  4.48e-08    10s
  39   3.61086502e+02 -1.32485499e+02  5.42e-08 5.20e-04  4.36e-08    10s
  40   3.61086439e+02 -4.49570823e+02  5.48e-08 4.91e-04  3.93e-08    11s
  41   3.61086411e+02 -4.61483116e+02  5.17e-08 4.91e-04  3.78e-08    11s
  42   3.61086406e+02 -4.22783896e+02  5.11e-08 5.07e-04  3.69e-08    11s
  43   3.61086386e+02 -4.77382955e+02  4.82e-08 4.84e-04  3.48e-08    11s
  44   3.61086347e+02 -1.54089040e+03  4.42e-08 6.29e-04  3.33e-08    11s
  45   3.61086347e+02 -1.54086397e+03  7.01e-08 6.29e-04  3.32e-08    12s
  46   3.61086380e+02 -1.51229390e+03  7.87e-08 5.85e-04  3.38e-08    12s
  47   3.61086379e+02 -1.51229427e+03  7.87e-08 5.85e-04  3.38e-08    12s
  48   3.61086380e+02 -1.49836990e+03  7.99e-08 5.82e-04  3.37e-08    12s
  49   3.61086379e+02 -1.49836861e+03  7.99e-08 5.82e-04  3.37e-08    13s
  50   3.61086392e+02 -1.42631216e+03  9.65e-08 5.34e-04  3.41e-08    13s
  51   3.61086393e+02 -1.40654037e+03  9.88e-08 5.28e-04  3.42e-08    13s
  52   3.61086389e+02 -1.40598238e+03  1.01e-07 5.28e-04  3.41e-08    13s
  53   3.61086464e+02 -1.04636727e+03  1.05e-07 5.39e-04  3.51e-08    13s

Barrier performed 53 iterations in 13.44 seconds
Numerical trouble encountered

Model may be infeasible or unbounded.  Consider using the
homogeneous algorithm (through parameter 'BarHomogeneous')

Solver name: Gurobi
Solve time: 13.624662357
Termination status: NUMERICAL_ERROR
Result count: 0
